\ This file has been generated by DOcplex
\ ENCODING=ISO-8859-1
\Problem name: Capacitated Lot Sizing Problem

Minimize
 obj: 2.120000000000 x_1_1_1 + 2.120000000000 x_1_1_2 + 2.120000000000 x_1_1_3
      + 2.120000000000 x_1_1_4 + 2.200000000000 x_1_2_1 + 2.200000000000 x_1_2_2
      + 2.200000000000 x_1_2_3 + 2.200000000000 x_1_2_4 + 2.320000000000 x_2_1_1
      + 2.320000000000 x_2_1_2 + 2.320000000000 x_2_1_3 + 2.320000000000 x_2_1_4
      + 2.350000000000 x_2_2_1 + 2.350000000000 x_2_2_2 + 2.350000000000 x_2_2_3
      + 2.350000000000 x_2_2_4 + 2.130000000000 x_3_1_1 + 2.130000000000 x_3_1_2
      + 2.130000000000 x_3_1_3 + 2.130000000000 x_3_1_4 + 2.470000000000 x_3_2_1
      + 2.470000000000 x_3_2_2 + 2.470000000000 x_3_2_3 + 2.470000000000 x_3_2_4
      + 2 x_4_1_1 + 2 x_4_1_2 + 2 x_4_1_3 + 2 x_4_1_4 + 2.390000000000 x_4_2_1
      + 2.390000000000 x_4_2_2 + 2.390000000000 x_4_2_3 + 2.390000000000 x_4_2_4
      + 2.310000000000 x_5_1_1 + 2.310000000000 x_5_1_2 + 2.310000000000 x_5_1_3
      + 2.310000000000 x_5_1_4 + 2.320000000000 x_5_2_1 + 2.320000000000 x_5_2_2
      + 2.320000000000 x_5_2_3 + 2.320000000000 x_5_2_4 + 1.630000000000 x_6_1_1
      + 1.630000000000 x_6_1_2 + 1.630000000000 x_6_1_3 + 1.630000000000 x_6_1_4
      + 2.070000000000 x_6_2_1 + 2.070000000000 x_6_2_2 + 2.070000000000 x_6_2_3
      + 2.070000000000 x_6_2_4 + 2.020000000000 x_7_1_1 + 2.020000000000 x_7_1_2
      + 2.020000000000 x_7_1_3 + 2.020000000000 x_7_1_4 + 1.590000000000 x_7_2_1
      + 1.590000000000 x_7_2_2 + 1.590000000000 x_7_2_3 + 1.590000000000 x_7_2_4
      + 1.870000000000 x_8_1_1 + 1.870000000000 x_8_1_2 + 1.870000000000 x_8_1_3
      + 1.870000000000 x_8_1_4 + 2.020000000000 x_8_2_1 + 2.020000000000 x_8_2_2
      + 2.020000000000 x_8_2_3 + 2.020000000000 x_8_2_4 + 1.510000000000 x_9_1_1
      + 1.510000000000 x_9_1_2 + 1.510000000000 x_9_1_3 + 1.510000000000 x_9_1_4
      + 1.510000000000 x_9_2_1 + 1.510000000000 x_9_2_2 + 1.510000000000 x_9_2_3
      + 1.510000000000 x_9_2_4 + 2.090000000000 x_10_1_1
      + 2.090000000000 x_10_1_2 + 2.090000000000 x_10_1_3
      + 2.090000000000 x_10_1_4 + 1.910000000000 x_10_2_1
      + 1.910000000000 x_10_2_2 + 1.910000000000 x_10_2_3
      + 1.910000000000 x_10_2_4 + 87 y_1_1_1 + 87 y_1_1_2 + 87 y_1_1_3
      + 87 y_1_1_4 + 91 y_1_2_1 + 91 y_1_2_2 + 91 y_1_2_3 + 91 y_1_2_4
      + 67 y_2_1_1 + 67 y_2_1_2 + 67 y_2_1_3 + 67 y_2_1_4 + 79 y_2_2_1
      + 79 y_2_2_2 + 79 y_2_2_3 + 79 y_2_2_4 + 76 y_3_1_1 + 76 y_3_1_2
      + 76 y_3_1_3 + 76 y_3_1_4 + 62 y_3_2_1 + 62 y_3_2_2 + 62 y_3_2_3
      + 62 y_3_2_4 + 43 y_4_1_1 + 43 y_4_1_2 + 43 y_4_1_3 + 43 y_4_1_4
      + 25 y_4_2_1 + 25 y_4_2_2 + 25 y_4_2_3 + 25 y_4_2_4 + 28 y_5_1_1
      + 28 y_5_1_2 + 28 y_5_1_3 + 28 y_5_1_4 + 88 y_5_2_1 + 88 y_5_2_2
      + 88 y_5_2_3 + 88 y_5_2_4 + 68 y_6_1_1 + 68 y_6_1_2 + 68 y_6_1_3
      + 68 y_6_1_4 + 14 y_6_2_1 + 14 y_6_2_2 + 14 y_6_2_3 + 14 y_6_2_4
      + 86 y_7_1_1 + 86 y_7_1_2 + 86 y_7_1_3 + 86 y_7_1_4 + 29 y_7_2_1
      + 29 y_7_2_2 + 29 y_7_2_3 + 29 y_7_2_4 + 67 y_8_1_1 + 67 y_8_1_2
      + 67 y_8_1_3 + 67 y_8_1_4 + 46 y_8_2_1 + 46 y_8_2_2 + 46 y_8_2_3
      + 46 y_8_2_4 + 29 y_9_1_1 + 29 y_9_1_2 + 29 y_9_1_3 + 29 y_9_1_4
      + 23 y_9_2_1 + 23 y_9_2_2 + 23 y_9_2_3 + 23 y_9_2_4 + 57 y_10_1_1
      + 57 y_10_1_2 + 57 y_10_1_3 + 57 y_10_1_4 + 42 y_10_2_1 + 42 y_10_2_2
      + 42 y_10_2_3 + 42 y_10_2_4 + 0.400000000000 s_1_1 + 0.370000000000 s_1_2
      + 0.370000000000 s_1_3 + 0.360000000000 s_1_4 + 0.240000000000 s_2_1
      + 0.350000000000 s_2_2 + 0.220000000000 s_2_3 + 0.230000000000 s_2_4
      + 0.280000000000 s_3_1 + 0.250000000000 s_3_2 + 0.210000000000 s_3_3
      + 0.300000000000 s_3_4 + 0.390000000000 s_4_1 + 0.220000000000 s_4_2
      + 0.250000000000 s_4_3 + 0.390000000000 s_4_4 + 0.310000000000 s_5_1
      + 0.290000000000 s_5_2 + 0.280000000000 s_5_3 + 0.360000000000 s_5_4
      + 0.290000000000 s_6_1 + 0.280000000000 s_6_2 + 0.270000000000 s_6_3
      + 0.360000000000 s_6_4 + 0.200000000000 s_7_1 + 0.290000000000 s_7_2
      + 0.330000000000 s_7_3 + 0.200000000000 s_7_4 + 0.260000000000 s_8_1
      + 0.270000000000 s_8_2 + 0.330000000000 s_8_3 + 0.300000000000 s_8_4
      + 0.300000000000 s_9_1 + 0.260000000000 s_9_2 + 0.290000000000 s_9_3
      + 0.390000000000 s_9_4 + 0.220000000000 s_10_1 + 0.220000000000 s_10_2
      + 0.230000000000 s_10_3 + 0.210000000000 s_10_4
Subject To
 c1: x_1_1_1 + x_1_2_1 - s_1_1 = 9
 c2: x_1_1_2 + x_1_2_2 + s_1_1 - s_1_2 = 96
 c3: x_1_1_3 + x_1_2_3 + s_1_2 - s_1_3 = 147
 c4: x_1_1_4 + x_1_2_4 + s_1_3 - s_1_4 = 87
 c5: x_2_1_1 + x_2_2_1 - s_2_1 = 24
 c6: x_2_1_2 + x_2_2_2 + s_2_1 - s_2_2 = 21
 c7: x_2_1_3 + x_2_2_3 + s_2_2 - s_2_3 = 153
 c8: x_2_1_4 + x_2_2_4 + s_2_3 - s_2_4 = 128
 c9: x_3_1_1 + x_3_2_1 - s_3_1 = 47
 c10: x_3_1_2 + x_3_2_2 + s_3_1 - s_3_2 = 93
 c11: x_3_1_3 + x_3_2_3 + s_3_2 - s_3_3 = 23
 c12: x_3_1_4 + x_3_2_4 + s_3_3 - s_3_4 = 101
 c13: x_4_1_1 + x_4_2_1 - s_4_1 = 6
 c14: x_4_1_2 + x_4_2_2 + s_4_1 - s_4_2 = 55
 c15: x_4_1_3 + x_4_2_3 + s_4_2 - s_4_3 = 88
 c16: x_4_1_4 + x_4_2_4 + s_4_3 - s_4_4 = 84
 c17: x_5_1_1 + x_5_2_1 - s_5_1 = 54
 c18: x_5_1_2 + x_5_2_2 + s_5_1 - s_5_2 = 120
 c19: x_5_1_3 + x_5_2_3 + s_5_2 - s_5_3 = 45
 c20: x_5_1_4 + x_5_2_4 + s_5_3 - s_5_4 = 141
 c21: x_6_1_1 + x_6_2_1 - s_6_1 = 150
 c22: x_6_1_2 + x_6_2_2 + s_6_1 - s_6_2 = 104
 c23: x_6_1_3 + x_6_2_3 + s_6_2 - s_6_3 = 173
 c24: x_6_1_4 + x_6_2_4 + s_6_3 - s_6_4 = 46
 c25: x_7_1_1 + x_7_2_1 - s_7_1 = 176
 c26: x_7_1_2 + x_7_2_2 + s_7_1 - s_7_2 = 10
 c27: x_7_1_3 + x_7_2_3 + s_7_2 - s_7_3 = 102
 c28: x_7_1_4 + x_7_2_4 + s_7_3 - s_7_4 = 34
 c29: x_8_1_1 + x_8_2_1 - s_8_1 = 22
 c30: x_8_1_2 + x_8_2_2 + s_8_1 - s_8_2 = 50
 c31: x_8_1_3 + x_8_2_3 + s_8_2 - s_8_3 = 69
 c32: x_8_1_4 + x_8_2_4 + s_8_3 - s_8_4 = 1
 c33: x_9_1_1 + x_9_2_1 - s_9_1 = 51
 c34: x_9_1_2 + x_9_2_2 + s_9_1 - s_9_2 = 166
 c35: x_9_1_3 + x_9_2_3 + s_9_2 - s_9_3 = 145
 c36: x_9_1_4 + x_9_2_4 + s_9_3 - s_9_4 = 120
 c37: x_10_1_1 + x_10_2_1 - s_10_1 = 174
 c38: x_10_1_2 + x_10_2_2 + s_10_1 - s_10_2 = 88
 c39: x_10_1_3 + x_10_2_3 + s_10_2 - s_10_3 = 137
 c40: x_10_1_4 + x_10_2_4 + s_10_3 - s_10_4 = 161
 c41: x_1_1_1 + 3 x_2_1_1 + x_3_1_1 + x_4_1_1 + 4 x_5_1_1 + x_6_1_1 + 2 x_7_1_1
      + x_8_1_1 + 3 x_9_1_1 + 2 x_10_1_1 + 29 y_1_1_1 + 35 y_2_1_1 + 28 y_3_1_1
      + 13 y_4_1_1 + 37 y_5_1_1 + 16 y_6_1_1 + 49 y_7_1_1 + 17 y_8_1_1
      + 23 y_9_1_1 + 34 y_10_1_1 <= 5411
 c42: x_1_1_2 + 3 x_2_1_2 + x_3_1_2 + x_4_1_2 + 4 x_5_1_2 + x_6_1_2 + 2 x_7_1_2
      + x_8_1_2 + 3 x_9_1_2 + 2 x_10_1_2 + 29 y_1_1_2 + 35 y_2_1_2 + 28 y_3_1_2
      + 13 y_4_1_2 + 37 y_5_1_2 + 16 y_6_1_2 + 49 y_7_1_2 + 17 y_8_1_2
      + 23 y_9_1_2 + 34 y_10_1_2 <= 2705
 c43: x_1_1_3 + 3 x_2_1_3 + x_3_1_3 + x_4_1_3 + 4 x_5_1_3 + x_6_1_3 + 2 x_7_1_3
      + x_8_1_3 + 3 x_9_1_3 + 2 x_10_1_3 + 29 y_1_1_3 + 35 y_2_1_3 + 28 y_3_1_3
      + 13 y_4_1_3 + 37 y_5_1_3 + 16 y_6_1_3 + 49 y_7_1_3 + 17 y_8_1_3
      + 23 y_9_1_3 + 34 y_10_1_3 <= 1803
 c44: x_1_1_4 + 3 x_2_1_4 + x_3_1_4 + x_4_1_4 + 4 x_5_1_4 + x_6_1_4 + 2 x_7_1_4
      + x_8_1_4 + 3 x_9_1_4 + 2 x_10_1_4 + 29 y_1_1_4 + 35 y_2_1_4 + 28 y_3_1_4
      + 13 y_4_1_4 + 37 y_5_1_4 + 16 y_6_1_4 + 49 y_7_1_4 + 17 y_8_1_4
      + 23 y_9_1_4 + 34 y_10_1_4 <= 1352
 c45: 2 x_1_2_1 + 4 x_2_2_1 + 3 x_3_2_1 + 4 x_4_2_1 + 3 x_5_2_1 + 2 x_6_2_1
      + 3 x_7_2_1 + x_8_2_1 + 4 x_9_2_1 + 2 x_10_2_1 + 20 y_1_2_1 + 19 y_2_2_1
      + 48 y_3_2_1 + 22 y_4_2_1 + 13 y_5_2_1 + 43 y_6_2_1 + 22 y_7_2_1
      + 48 y_8_2_1 + 34 y_9_2_1 + 35 y_10_2_1 <= 5411
 c46: 2 x_1_2_2 + 4 x_2_2_2 + 3 x_3_2_2 + 4 x_4_2_2 + 3 x_5_2_2 + 2 x_6_2_2
      + 3 x_7_2_2 + x_8_2_2 + 4 x_9_2_2 + 2 x_10_2_2 + 20 y_1_2_2 + 19 y_2_2_2
      + 48 y_3_2_2 + 22 y_4_2_2 + 13 y_5_2_2 + 43 y_6_2_2 + 22 y_7_2_2
      + 48 y_8_2_2 + 34 y_9_2_2 + 35 y_10_2_2 <= 2705
 c47: 2 x_1_2_3 + 4 x_2_2_3 + 3 x_3_2_3 + 4 x_4_2_3 + 3 x_5_2_3 + 2 x_6_2_3
      + 3 x_7_2_3 + x_8_2_3 + 4 x_9_2_3 + 2 x_10_2_3 + 20 y_1_2_3 + 19 y_2_2_3
      + 48 y_3_2_3 + 22 y_4_2_3 + 13 y_5_2_3 + 43 y_6_2_3 + 22 y_7_2_3
      + 48 y_8_2_3 + 34 y_9_2_3 + 35 y_10_2_3 <= 1803
 c48: 2 x_1_2_4 + 4 x_2_2_4 + 3 x_3_2_4 + 4 x_4_2_4 + 3 x_5_2_4 + 2 x_6_2_4
      + 3 x_7_2_4 + x_8_2_4 + 4 x_9_2_4 + 2 x_10_2_4 + 20 y_1_2_4 + 19 y_2_2_4
      + 48 y_3_2_4 + 22 y_4_2_4 + 13 y_5_2_4 + 43 y_6_2_4 + 22 y_7_2_4
      + 48 y_8_2_4 + 34 y_9_2_4 + 35 y_10_2_4 <= 1352
 c49: x_1_1_1 - 5411 y_1_1_1 <= 0
 c50: x_1_1_2 - 5411 y_1_1_2 <= 0
 c51: x_1_1_3 - 5411 y_1_1_3 <= 0
 c52: x_1_1_4 - 5411 y_1_1_4 <= 0
 c53: x_1_2_1 - 5411 y_1_2_1 <= 0
 c54: x_1_2_2 - 5411 y_1_2_2 <= 0
 c55: x_1_2_3 - 5411 y_1_2_3 <= 0
 c56: x_1_2_4 - 5411 y_1_2_4 <= 0
 c57: x_2_1_1 - 5411 y_2_1_1 <= 0
 c58: x_2_1_2 - 5411 y_2_1_2 <= 0
 c59: x_2_1_3 - 5411 y_2_1_3 <= 0
 c60: x_2_1_4 - 5411 y_2_1_4 <= 0
 c61: x_2_2_1 - 5411 y_2_2_1 <= 0
 c62: x_2_2_2 - 5411 y_2_2_2 <= 0
 c63: x_2_2_3 - 5411 y_2_2_3 <= 0
 c64: x_2_2_4 - 5411 y_2_2_4 <= 0
 c65: x_3_1_1 - 5411 y_3_1_1 <= 0
 c66: x_3_1_2 - 5411 y_3_1_2 <= 0
 c67: x_3_1_3 - 5411 y_3_1_3 <= 0
 c68: x_3_1_4 - 5411 y_3_1_4 <= 0
 c69: x_3_2_1 - 5411 y_3_2_1 <= 0
 c70: x_3_2_2 - 5411 y_3_2_2 <= 0
 c71: x_3_2_3 - 5411 y_3_2_3 <= 0
 c72: x_3_2_4 - 5411 y_3_2_4 <= 0
 c73: x_4_1_1 - 5411 y_4_1_1 <= 0
 c74: x_4_1_2 - 5411 y_4_1_2 <= 0
 c75: x_4_1_3 - 5411 y_4_1_3 <= 0
 c76: x_4_1_4 - 5411 y_4_1_4 <= 0
 c77: x_4_2_1 - 5411 y_4_2_1 <= 0
 c78: x_4_2_2 - 5411 y_4_2_2 <= 0
 c79: x_4_2_3 - 5411 y_4_2_3 <= 0
 c80: x_4_2_4 - 5411 y_4_2_4 <= 0
 c81: x_5_1_1 - 5411 y_5_1_1 <= 0
 c82: x_5_1_2 - 5411 y_5_1_2 <= 0
 c83: x_5_1_3 - 5411 y_5_1_3 <= 0
 c84: x_5_1_4 - 5411 y_5_1_4 <= 0
 c85: x_5_2_1 - 5411 y_5_2_1 <= 0
 c86: x_5_2_2 - 5411 y_5_2_2 <= 0
 c87: x_5_2_3 - 5411 y_5_2_3 <= 0
 c88: x_5_2_4 - 5411 y_5_2_4 <= 0
 c89: x_6_1_1 - 5411 y_6_1_1 <= 0
 c90: x_6_1_2 - 5411 y_6_1_2 <= 0
 c91: x_6_1_3 - 5411 y_6_1_3 <= 0
 c92: x_6_1_4 - 5411 y_6_1_4 <= 0
 c93: x_6_2_1 - 5411 y_6_2_1 <= 0
 c94: x_6_2_2 - 5411 y_6_2_2 <= 0
 c95: x_6_2_3 - 5411 y_6_2_3 <= 0
 c96: x_6_2_4 - 5411 y_6_2_4 <= 0
 c97: x_7_1_1 - 5411 y_7_1_1 <= 0
 c98: x_7_1_2 - 5411 y_7_1_2 <= 0
 c99: x_7_1_3 - 5411 y_7_1_3 <= 0
 c100: x_7_1_4 - 5411 y_7_1_4 <= 0
 c101: x_7_2_1 - 5411 y_7_2_1 <= 0
 c102: x_7_2_2 - 5411 y_7_2_2 <= 0
 c103: x_7_2_3 - 5411 y_7_2_3 <= 0
 c104: x_7_2_4 - 5411 y_7_2_4 <= 0
 c105: x_8_1_1 - 5411 y_8_1_1 <= 0
 c106: x_8_1_2 - 5411 y_8_1_2 <= 0
 c107: x_8_1_3 - 5411 y_8_1_3 <= 0
 c108: x_8_1_4 - 5411 y_8_1_4 <= 0
 c109: x_8_2_1 - 5411 y_8_2_1 <= 0
 c110: x_8_2_2 - 5411 y_8_2_2 <= 0
 c111: x_8_2_3 - 5411 y_8_2_3 <= 0
 c112: x_8_2_4 - 5411 y_8_2_4 <= 0
 c113: x_9_1_1 - 5411 y_9_1_1 <= 0
 c114: x_9_1_2 - 5411 y_9_1_2 <= 0
 c115: x_9_1_3 - 5411 y_9_1_3 <= 0
 c116: x_9_1_4 - 5411 y_9_1_4 <= 0
 c117: x_9_2_1 - 5411 y_9_2_1 <= 0
 c118: x_9_2_2 - 5411 y_9_2_2 <= 0
 c119: x_9_2_3 - 5411 y_9_2_3 <= 0
 c120: x_9_2_4 - 5411 y_9_2_4 <= 0
 c121: x_10_1_1 - 5411 y_10_1_1 <= 0
 c122: x_10_1_2 - 5411 y_10_1_2 <= 0
 c123: x_10_1_3 - 5411 y_10_1_3 <= 0
 c124: x_10_1_4 - 5411 y_10_1_4 <= 0
 c125: x_10_2_1 - 5411 y_10_2_1 <= 0
 c126: x_10_2_2 - 5411 y_10_2_2 <= 0
 c127: x_10_2_3 - 5411 y_10_2_3 <= 0
 c128: x_10_2_4 - 5411 y_10_2_4 <= 0

Bounds
 0 <= y_1_1_1 <= 1
 0 <= y_1_1_2 <= 1
 0 <= y_1_1_3 <= 1
 0 <= y_1_1_4 <= 1
 0 <= y_1_2_1 <= 1
 0 <= y_1_2_2 <= 1
 0 <= y_1_2_3 <= 1
 0 <= y_1_2_4 <= 1
 0 <= y_2_1_1 <= 1
 0 <= y_2_1_2 <= 1
 0 <= y_2_1_3 <= 1
 0 <= y_2_1_4 <= 1
 0 <= y_2_2_1 <= 1
 0 <= y_2_2_2 <= 1
 0 <= y_2_2_3 <= 1
 0 <= y_2_2_4 <= 1
 0 <= y_3_1_1 <= 1
 0 <= y_3_1_2 <= 1
 0 <= y_3_1_3 <= 1
 0 <= y_3_1_4 <= 1
 0 <= y_3_2_1 <= 1
 0 <= y_3_2_2 <= 1
 0 <= y_3_2_3 <= 1
 0 <= y_3_2_4 <= 1
 0 <= y_4_1_1 <= 1
 0 <= y_4_1_2 <= 1
 0 <= y_4_1_3 <= 1
 0 <= y_4_1_4 <= 1
 0 <= y_4_2_1 <= 1
 0 <= y_4_2_2 <= 1
 0 <= y_4_2_3 <= 1
 0 <= y_4_2_4 <= 1
 0 <= y_5_1_1 <= 1
 0 <= y_5_1_2 <= 1
 0 <= y_5_1_3 <= 1
 0 <= y_5_1_4 <= 1
 0 <= y_5_2_1 <= 1
 0 <= y_5_2_2 <= 1
 0 <= y_5_2_3 <= 1
 0 <= y_5_2_4 <= 1
 0 <= y_6_1_1 <= 1
 0 <= y_6_1_2 <= 1
 0 <= y_6_1_3 <= 1
 0 <= y_6_1_4 <= 1
 0 <= y_6_2_1 <= 1
 0 <= y_6_2_2 <= 1
 0 <= y_6_2_3 <= 1
 0 <= y_6_2_4 <= 1
 0 <= y_7_1_1 <= 1
 0 <= y_7_1_2 <= 1
 0 <= y_7_1_3 <= 1
 0 <= y_7_1_4 <= 1
 0 <= y_7_2_1 <= 1
 0 <= y_7_2_2 <= 1
 0 <= y_7_2_3 <= 1
 0 <= y_7_2_4 <= 1
 0 <= y_8_1_1 <= 1
 0 <= y_8_1_2 <= 1
 0 <= y_8_1_3 <= 1
 0 <= y_8_1_4 <= 1
 0 <= y_8_2_1 <= 1
 0 <= y_8_2_2 <= 1
 0 <= y_8_2_3 <= 1
 0 <= y_8_2_4 <= 1
 0 <= y_9_1_1 <= 1
 0 <= y_9_1_2 <= 1
 0 <= y_9_1_3 <= 1
 0 <= y_9_1_4 <= 1
 0 <= y_9_2_1 <= 1
 0 <= y_9_2_2 <= 1
 0 <= y_9_2_3 <= 1
 0 <= y_9_2_4 <= 1
 0 <= y_10_1_1 <= 1
 0 <= y_10_1_2 <= 1
 0 <= y_10_1_3 <= 1
 0 <= y_10_1_4 <= 1
 0 <= y_10_2_1 <= 1
 0 <= y_10_2_2 <= 1
 0 <= y_10_2_3 <= 1
 0 <= y_10_2_4 <= 1

Binaries
 y_1_1_1 y_1_1_2 y_1_1_3 y_1_1_4 y_1_2_1 y_1_2_2 y_1_2_3 y_1_2_4 y_2_1_1 y_2_1_2
 y_2_1_3 y_2_1_4 y_2_2_1 y_2_2_2 y_2_2_3 y_2_2_4 y_3_1_1 y_3_1_2 y_3_1_3 y_3_1_4
 y_3_2_1 y_3_2_2 y_3_2_3 y_3_2_4 y_4_1_1 y_4_1_2 y_4_1_3 y_4_1_4 y_4_2_1 y_4_2_2
 y_4_2_3 y_4_2_4 y_5_1_1 y_5_1_2 y_5_1_3 y_5_1_4 y_5_2_1 y_5_2_2 y_5_2_3 y_5_2_4
 y_6_1_1 y_6_1_2 y_6_1_3 y_6_1_4 y_6_2_1 y_6_2_2 y_6_2_3 y_6_2_4 y_7_1_1 y_7_1_2
 y_7_1_3 y_7_1_4 y_7_2_1 y_7_2_2 y_7_2_3 y_7_2_4 y_8_1_1 y_8_1_2 y_8_1_3 y_8_1_4
 y_8_2_1 y_8_2_2 y_8_2_3 y_8_2_4 y_9_1_1 y_9_1_2 y_9_1_3 y_9_1_4 y_9_2_1 y_9_2_2
 y_9_2_3 y_9_2_4 y_10_1_1 y_10_1_2 y_10_1_3 y_10_1_4 y_10_2_1 y_10_2_2 y_10_2_3
 y_10_2_4

Generals
 x_1_1_1 x_1_1_2 x_1_1_3 x_1_1_4 x_1_2_1 x_1_2_2 x_1_2_3 x_1_2_4 x_2_1_1 x_2_1_2
 x_2_1_3 x_2_1_4 x_2_2_1 x_2_2_2 x_2_2_3 x_2_2_4 x_3_1_1 x_3_1_2 x_3_1_3 x_3_1_4
 x_3_2_1 x_3_2_2 x_3_2_3 x_3_2_4 x_4_1_1 x_4_1_2 x_4_1_3 x_4_1_4 x_4_2_1 x_4_2_2
 x_4_2_3 x_4_2_4 x_5_1_1 x_5_1_2 x_5_1_3 x_5_1_4 x_5_2_1 x_5_2_2 x_5_2_3 x_5_2_4
 x_6_1_1 x_6_1_2 x_6_1_3 x_6_1_4 x_6_2_1 x_6_2_2 x_6_2_3 x_6_2_4 x_7_1_1 x_7_1_2
 x_7_1_3 x_7_1_4 x_7_2_1 x_7_2_2 x_7_2_3 x_7_2_4 x_8_1_1 x_8_1_2 x_8_1_3 x_8_1_4
 x_8_2_1 x_8_2_2 x_8_2_3 x_8_2_4 x_9_1_1 x_9_1_2 x_9_1_3 x_9_1_4 x_9_2_1 x_9_2_2
 x_9_2_3 x_9_2_4 x_10_1_1 x_10_1_2 x_10_1_3 x_10_1_4 x_10_2_1 x_10_2_2 x_10_2_3
 x_10_2_4 s_1_1 s_1_2 s_1_3 s_1_4 s_2_1 s_2_2 s_2_3 s_2_4 s_3_1 s_3_2 s_3_3
 s_3_4 s_4_1 s_4_2 s_4_3 s_4_4 s_5_1 s_5_2 s_5_3 s_5_4 s_6_1 s_6_2 s_6_3 s_6_4
 s_7_1 s_7_2 s_7_3 s_7_4 s_8_1 s_8_2 s_8_3 s_8_4 s_9_1 s_9_2 s_9_3 s_9_4 s_10_1
 s_10_2 s_10_3 s_10_4
End
